%nprocshared=16
%mem=1000MW
#p opt freq rcam-b3lyp/6-311g(d) scrf=(solvent=dimethylsulfoxide) 

Triazole 8c opt freq cam-b3lyp/6-311g(d) DMSO

0 1
 C                  7.11956600   -1.75946300    0.13447400
 C                  8.12339400   -0.83372800    0.12541800
 C                  5.77923300   -1.27149300    0.08880900
 C                  5.49772500    0.11874200    0.03619400
 C                  7.87796100    0.59170200    0.07287600
 C                  6.54416200    1.10236500    0.02674300
 N                  4.61459400   -1.94404700    0.08454600
 C                  2.30118300   -1.24915300    0.00695100
 C                  1.87197900   -2.59145600    0.05426600
 C                  1.40251100   -0.18023400   -0.06423000
 C                  0.51747200   -2.90258700    0.03108700
 C                  0.05398000   -0.51568500   -0.08583700
 C                 -0.40827100   -1.85441400   -0.03999500
 H                  1.75375500    0.84291400   -0.10032700
 H                  0.18553300   -3.93521500    0.06721400
 C                 -2.17594100   -0.59333800   -0.14555600
 N                  3.69792100   -0.97030000    0.03135500
 N                  4.16557700    0.28345900    0.00049800
 H                  7.32143000   -2.82476700    0.17414400
 H                  9.15897700   -1.16176800    0.15849100
 C                  8.94850200    1.51485200    0.06554300
 C                  8.71276200    2.87890500    0.01507100
 C                  7.39359300    3.37041900   -0.03009000
 C                  6.32175100    2.49242200   -0.02429300
 H                  7.21634100    4.44138200   -0.06951500
 H                  5.30178800    2.86370100   -0.05880700
 N                 -1.78753300   -1.86993600   -0.07847200
 N                 -1.09150900    0.25564800   -0.15218900
 C                 -3.56047300   -0.17793800   -0.20275800
 C                 -3.95610300    1.17209200   -0.28647200
 C                 -5.28015400    1.56029100   -0.32898200
 C                 -6.32512900    0.59000900   -0.29777500
 C                 -5.93881000   -0.76603000   -0.20233900
 C                 -4.59950300   -1.15098400   -0.16249100
 H                 -5.50444700    2.61695300   -0.38279000
 H                 -6.66897200   -1.56309300   -0.15514600
 N                 -7.65030800    0.95909900   -0.37644100
 C                 -8.71885100   -0.04147000   -0.29658000
 C                 -9.05722800   -0.51345400    1.12404100
 H                 -8.45060800   -0.89880000   -0.92394900
 H                 -9.60817100    0.40118900   -0.75421700
 H                 -9.83718600   -1.28263100    1.08457000
 H                 -8.18223200   -0.94184500    1.62294000
 H                 -9.42722000    0.31444500    1.73729100
 C                 -8.04266500    2.37024700   -0.45007300
 C                 -8.06607200    3.10524700    0.89679700
 H                 -9.03931500    2.40208800   -0.89971600
 H                 -7.37970800    2.88898600   -1.15079100
 H                 -8.34336900    4.15474600    0.74425400
 H                 -8.79572500    2.65652000    1.57848700
 H                 -7.08567200    3.07958800    1.38326700
 H                  2.61460900   -3.37713200    0.10870200
 H                 -3.34981600   -2.59202200   -0.06031400
 H                 -3.20172700    1.95365200   -0.31830100
 H                 -1.12127000    1.26457900   -0.18744600
 O                 -4.34166100   -2.47586300   -0.07979900
 H                  9.54814600    3.57327400    0.01021700
 H                  9.96750800    1.13750100    0.10025700

eof